p cnf 100 1
100 0
w 1 0.510935
w 2 1 0.770834
w 2 -1 0.118514
w 3 2 1
w 3 -2 0
w 4 3 1
w 4 -3 0
w 5 4 0.976768
w 5 -4 0.231647
w 6 5 1
w 6 -5 0
w 7 6 0.994614
w 7 -6 0.565051
w 8 7 0
w 8 -7 1
w 9 8 0
w 9 -8 1
w 10 9 0.934675
w 10 -9 0.0741432
w 11 1 1
w 11 -1 0
w 12 11 2 0.211962
w 12 11 -2 0.0642358
w 12 -11 2 0.867779
w 12 -11 -2 0.682725
w 13 12 3 0.378714
w 13 12 -3 0.304915
w 13 -12 3 0.71417
w 13 -12 -3 0.497228
w 14 13 4 0.233855
w 14 13 -4 0.787136
w 14 -13 4 0.445248
w 14 -13 -4 0.0384622
w 15 14 5 0.676894
w 15 14 -5 0.313891
w 15 -14 5 0.476893
w 15 -14 -5 0.536903
w 16 15 6 0
w 16 15 -6 1
w 16 -15 6 1
w 16 -15 -6 0
w 17 16 7 0.873609
w 17 16 -7 0.330379
w 17 -16 7 0.758336
w 17 -16 -7 0.170917
w 18 17 8 0.511939
w 18 17 -8 0.38288
w 18 -17 8 0.806984
w 18 -17 -8 0.379718
w 19 18 9 0
w 19 18 -9 1
w 19 -18 9 1
w 19 -18 -9 0
w 20 19 10 0
w 20 19 -10 1
w 20 -19 10 1
w 20 -19 -10 0
w 21 11 0.8067
w 21 -11 0.125572
w 22 21 12 1
w 22 21 -12 0
w 22 -21 12 0
w 22 -21 -12 1
w 23 22 13 0.510764
w 23 22 -13 0.721242
w 23 -22 13 0.255981
w 23 -22 -13 0.384374
w 24 23 14 1
w 24 23 -14 0
w 24 -23 14 0
w 24 -23 -14 1
w 25 24 15 0.601354
w 25 24 -15 0.905973
w 25 -24 15 0.00377581
w 25 -24 -15 0.351674
w 26 25 16 0.374296
w 26 25 -16 0.816164
w 26 -25 16 0.920066
w 26 -25 -16 0.377725
w 27 26 17 0.962862
w 27 26 -17 0.826403
w 27 -26 17 0.251316
w 27 -26 -17 0.769562
w 28 27 18 0.302013
w 28 27 -18 0.0531557
w 28 -27 18 0.614451
w 28 -27 -18 0.661215
w 29 28 19 0
w 29 28 -19 0
w 29 -28 19 0
w 29 -28 -19 1
w 30 29 20 1
w 30 29 -20 0
w 30 -29 20 0
w 30 -29 -20 0
w 31 21 1
w 31 -21 0
w 32 31 22 0.0535906
w 32 31 -22 0.898956
w 32 -31 22 0.55317
w 32 -31 -22 0.427886
w 33 32 23 0.473236
w 33 32 -23 0.805612
w 33 -32 23 0.22963
w 33 -32 -23 0.436098
w 34 33 24 0.480945
w 34 33 -24 0.20566
w 34 -33 24 0.58399
w 34 -33 -24 0.782959
w 35 34 25 0
w 35 34 -25 0
w 35 -34 25 1
w 35 -34 -25 1
w 36 35 26 0.737445
w 36 35 -26 0.826899
w 36 -35 26 0.172507
w 36 -35 -26 0.889003
w 37 36 27 1
w 37 36 -27 0
w 37 -36 27 1
w 37 -36 -27 0
w 38 37 28 1
w 38 37 -28 1
w 38 -37 28 1
w 38 -37 -28 0
w 39 38 29 0.996289
w 39 38 -29 0.181397
w 39 -38 29 0.621055
w 39 -38 -29 0.225918
w 40 39 30 0.25307
w 40 39 -30 0.706864
w 40 -39 30 0.823155
w 40 -39 -30 0.83706
w 41 31 1
w 41 -31 0
w 42 41 32 1
w 42 41 -32 0
w 42 -41 32 1
w 42 -41 -32 1
w 43 42 33 1
w 43 42 -33 0
w 43 -42 33 0
w 43 -42 -33 0
w 44 43 34 1
w 44 43 -34 1
w 44 -43 34 0
w 44 -43 -34 0
w 45 44 35 0.728332
w 45 44 -35 0.844238
w 45 -44 35 0.659894
w 45 -44 -35 0.543775
w 46 45 36 0.841291
w 46 45 -36 0.16483
w 46 -45 36 0.0664448
w 46 -45 -36 0.458787
w 47 46 37 0
w 47 46 -37 0
w 47 -46 37 1
w 47 -46 -37 1
w 48 47 38 1
w 48 47 -38 0
w 48 -47 38 1
w 48 -47 -38 1
w 49 48 39 0.540318
w 49 48 -39 0.957721
w 49 -48 39 0.469935
w 49 -48 -39 0.886246
w 50 49 40 0
w 50 49 -40 1
w 50 -49 40 1
w 50 -49 -40 0
w 51 41 0.236711
w 51 -41 0.545851
w 52 51 42 1
w 52 51 -42 1
w 52 -51 42 0
w 52 -51 -42 1
w 53 52 43 1
w 53 52 -43 0
w 53 -52 43 0
w 53 -52 -43 1
w 54 53 44 1
w 54 53 -44 0
w 54 -53 44 1
w 54 -53 -44 1
w 55 54 45 0.928416
w 55 54 -45 0.362228
w 55 -54 45 0.466248
w 55 -54 -45 0.886138
w 56 55 46 0.352494
w 56 55 -46 0.374374
w 56 -55 46 0.308907
w 56 -55 -46 0.419599
w 57 56 47 0.126426
w 57 56 -47 0.0497728
w 57 -56 47 0.896063
w 57 -56 -47 0.672277
w 58 57 48 0.792668
w 58 57 -48 0.761902
w 58 -57 48 0.839125
w 58 -57 -48 0.530564
w 59 58 49 1
w 59 58 -49 0
w 59 -58 49 1
w 59 -58 -49 1
w 60 59 50 1
w 60 59 -50 0
w 60 -59 50 0
w 60 -59 -50 0
w 61 51 1
w 61 -51 0
w 62 61 52 0.770202
w 62 61 -52 0.440588
w 62 -61 52 0.648355
w 62 -61 -52 0.602365
w 63 62 53 0.0227295
w 63 62 -53 0.911272
w 63 -62 53 0.21268
w 63 -62 -53 0.682082
w 64 63 54 1
w 64 63 -54 1
w 64 -63 54 1
w 64 -63 -54 0
w 65 64 55 1
w 65 64 -55 0
w 65 -64 55 1
w 65 -64 -55 0
w 66 65 56 0.628625
w 66 65 -56 0.176946
w 66 -65 56 0.221473
w 66 -65 -56 0.834497
w 67 66 57 0.0144967
w 67 66 -57 0.882906
w 67 -66 57 0.626774
w 67 -66 -57 0.422471
w 68 67 58 0.388992
w 68 67 -58 0.192673
w 68 -67 58 0.297833
w 68 -67 -58 0.0373472
w 69 68 59 0.0909148
w 69 68 -59 0.0600767
w 69 -68 59 0.70631
w 69 -68 -59 0.303595
w 70 69 60 0.744007
w 70 69 -60 0.566049
w 70 -69 60 0.320304
w 70 -69 -60 0.453981
w 71 61 0
w 71 -61 1
w 72 71 62 0.97845
w 72 71 -62 0.592495
w 72 -71 62 0.414091
w 72 -71 -62 0.824722
w 73 72 63 0
w 73 72 -63 1
w 73 -72 63 0
w 73 -72 -63 1
w 74 73 64 1
w 74 73 -64 1
w 74 -73 64 1
w 74 -73 -64 0
w 75 74 65 1
w 75 74 -65 0
w 75 -74 65 0
w 75 -74 -65 0
w 76 75 66 1
w 76 75 -66 1
w 76 -75 66 1
w 76 -75 -66 0
w 77 76 67 0
w 77 76 -67 0
w 77 -76 67 1
w 77 -76 -67 0
w 78 77 68 1
w 78 77 -68 0
w 78 -77 68 0
w 78 -77 -68 0
w 79 78 69 0
w 79 78 -69 1
w 79 -78 69 0
w 79 -78 -69 1
w 80 79 70 0
w 80 79 -70 1
w 80 -79 70 1
w 80 -79 -70 0
w 81 71 1
w 81 -71 0
w 82 81 72 0.537845
w 82 81 -72 0.946775
w 82 -81 72 0.132416
w 82 -81 -72 0.0350436
w 83 82 73 0
w 83 82 -73 1
w 83 -82 73 1
w 83 -82 -73 1
w 84 83 74 0.420317
w 84 83 -74 0.0815335
w 84 -83 74 0.0848404
w 84 -83 -74 0.721345
w 85 84 75 0
w 85 84 -75 0
w 85 -84 75 1
w 85 -84 -75 0
w 86 85 76 0.933063
w 86 85 -76 0.112515
w 86 -85 76 0.432783
w 86 -85 -76 0.249968
w 87 86 77 1
w 87 86 -77 0
w 87 -86 77 1
w 87 -86 -77 0
w 88 87 78 0.973247
w 88 87 -78 0.772297
w 88 -87 78 0.472711
w 88 -87 -78 0.105663
w 89 88 79 0.596669
w 89 88 -79 0.72619
w 89 -88 79 0.0817421
w 89 -88 -79 0.641815
w 90 89 80 1
w 90 89 -80 1
w 90 -89 80 1
w 90 -89 -80 0
w 91 81 0.928758
w 91 -81 0.219942
w 92 91 82 0.921264
w 92 91 -82 0.96256
w 92 -91 82 0.559154
w 92 -91 -82 0.0337788
w 93 92 83 0
w 93 92 -83 1
w 93 -92 83 1
w 93 -92 -83 0
w 94 93 84 1
w 94 93 -84 1
w 94 -93 84 0
w 94 -93 -84 0
w 95 94 85 0.309082
w 95 94 -85 0.343164
w 95 -94 85 0.454472
w 95 -94 -85 0.0352722
w 96 95 86 0
w 96 95 -86 0
w 96 -95 86 1
w 96 -95 -86 1
w 97 96 87 0.341356
w 97 96 -87 0.941898
w 97 -96 87 0.867801
w 97 -96 -87 0.270114
w 98 97 88 1
w 98 97 -88 0
w 98 -97 88 0
w 98 -97 -88 1
w 99 98 89 0
w 99 98 -89 1
w 99 -98 89 0
w 99 -98 -89 1
w 100 99 90 0.660154
w 100 99 -90 0.812342
w 100 -99 90 0.106415
w 100 -99 -90 0.863572